c
p cnf 32 34
17 -19 0
17 26 0
29 -28 0
-5 17 0
-5 24 0
8 -27 0
24 -14 0
-7 23 0
15 30 0
-30 -19 0
-14 27 0
6 32 0
-30 27 0
22 -13 0
18 30 0
-8 -25 0
23 8 0
20 -1 0
-2 -28 0
-31 -12 0
21 27 0
-1 -23 0
-18 -12 0
-26 -3 0
8 26 0
-7 -16 0
-3 4 0
-13 -26 0
-29 -18 0
1 27 0
7 13 0
-4 -1 0
22 -10 0
2 -32 0
